p tw 121 1265
1 57
1 72
1 88
1 104
1 120
1 18
1 100
1 37
1 27
1 55
1 65
1 79
1 92
1 105
1 118
1 12
1 26
1 28
1 2
1 39
1 53
1 70
1 84
1 99
1 114
1 9
1 23
1 25
1 49
1 42
2 69
2 66
2 80
2 93
2 106
2 119
2 13
2 45
2 29
2 49
2 39
2 68
2 82
2 96
2 112
2 7
2 21
2 3
2 38
2 27
2 54
49 61
49 73
49 85
49 97
49 109
49 121
49 15
61 73
61 85
61 97
61 109
61 121
61 15
73 85
73 97
73 109
73 121
73 15
85 97
85 109
85 121
85 15
97 109
97 121
97 15
109 121
109 15
121 15
34 54
34 51
34 27
34 41
34 52
27 55
27 52
27 41
27 54
39 68
39 81
39 94
39 107
39 120
39 16
39 61
39 42
39 69
39 83
39 98
39 113
39 8
39 22
39 40
39 41
39 55
41 54
41 55
42 43
42 44
42 46
42 47
42 48
42 50
42 51
42 52
42 54
42 55
43 44
43 46
43 47
43 48
43 50
43 51
43 52
43 54
43 55
44 46
44 47
44 48
44 50
44 51
44 52
44 54
44 55
46 47
46 48
46 50
46 51
46 52
46 54
46 55
47 48
47 50
47 51
47 52
47 54
47 55
48 50
48 51
48 52
48 54
48 55
50 51
50 52
50 54
50 55
51 52
51 54
51 55
52 54
52 55
53 71
53 87
53 103
53 119
53 17
53 54
53 57
53 58
53 59
53 60
53 62
53 63
53 64
53 66
53 68
53 69
53 70
53 84
53 99
53 114
53 9
53 23
54 55
57 72
57 88
57 104
57 120
57 18
57 70
57 58
57 59
57 60
57 62
57 63
57 64
57 66
57 68
57 69
57 71
57 86
57 101
57 115
57 10
57 24
57 61
58 74
58 90
58 106
58 4
58 19
58 71
58 84
58 59
58 60
58 62
58 63
58 64
58 66
58 68
58 69
58 72
58 87
58 102
58 116
58 11
58 73
59 75
59 91
59 107
59 5
59 20
59 72
59 86
59 99
59 60
59 62
59 63
59 64
59 66
59 68
59 69
59 74
59 88
59 103
59 117
59 13
59 85
60 76
60 93
60 108
60 6
60 21
60 74
60 87
60 101
60 114
60 62
60 63
60 64
60 66
60 68
60 69
60 75
60 90
60 104
60 119
60 16
60 97
62 77
62 94
62 110
62 7
62 22
62 75
62 88
62 102
62 115
62 9
62 63
62 64
62 66
62 68
62 69
62 76
62 91
62 106
62 120
62 17
62 109
63 80
63 95
63 112
63 8
63 76
63 90
63 103
63 116
63 10
63 23
63 64
63 66
63 68
63 69
63 77
63 93
63 107
63 4
63 18
63 121
64 81
64 96
64 113
64 77
64 91
64 104
64 117
64 11
64 24
64 66
64 68
64 69
64 80
64 94
64 108
64 5
64 19
64 15
65 74
65 90
65 106
65 4
65 19
65 79
65 92
65 105
65 118
65 12
65 26
65 71
65 86
65 101
65 115
65 10
65 24
66 82
66 98
66 80
66 93
66 106
66 119
66 13
66 68
66 69
66 81
66 95
66 110
66 6
66 20
68 83
68 81
68 94
68 107
68 120
68 16
68 69
68 82
68 96
68 112
68 7
68 21
69 82
69 95
69 108
69 4
69 17
69 73
69 83
69 98
69 113
69 8
69 22
70 86
70 102
70 117
70 16
70 15
70 71
70 72
70 74
70 75
70 76
70 77
70 80
70 81
70 82
70 83
70 84
70 99
70 114
70 9
70 23
71 87
71 103
71 119
71 17
71 84
71 72
71 74
71 75
71 76
71 77
71 80
71 81
71 82
71 83
71 86
71 101
71 115
71 10
71 24
72 88
72 104
72 120
72 18
72 86
72 99
72 74
72 75
72 76
72 77
72 80
72 81
72 82
72 83
72 87
72 102
72 116
72 11
72 73
74 90
74 106
74 4
74 19
74 87
74 101
74 114
74 75
74 76
74 77
74 80
74 81
74 82
74 83
74 88
74 103
74 117
74 13
74 85
75 91
75 107
75 5
75 20
75 88
75 102
75 115
75 9
75 76
75 77
75 80
75 81
75 82
75 83
75 90
75 104
75 119
75 16
75 97
76 93
76 108
76 6
76 21
76 90
76 103
76 116
76 10
76 23
76 77
76 80
76 81
76 82
76 83
76 91
76 106
76 120
76 17
76 109
77 94
77 110
77 7
77 22
77 91
77 104
77 117
77 11
77 24
77 80
77 81
77 82
77 83
77 93
77 107
77 4
77 18
77 121
79 91
79 107
79 5
79 20
79 92
79 105
79 118
79 12
79 26
79 87
79 102
79 116
79 11
80 95
80 112
80 8
80 93
80 106
80 119
80 13
80 81
80 82
80 83
80 94
80 108
80 5
80 19
80 15
81 96
81 113
81 94
81 107
81 120
81 16
81 82
81 83
81 95
81 110
81 6
81 20
82 98
82 95
82 108
82 4
82 17
82 83
82 96
82 112
82 7
82 21
83 96
83 110
83 5
83 18
83 85
83 98
83 113
83 8
83 22
84 101
84 116
84 13
84 121
84 86
84 87
84 88
84 90
84 91
84 93
84 94
84 95
84 96
84 98
84 99
84 114
84 9
84 23
86 102
86 117
86 16
86 15
86 99
86 87
86 88
86 90
86 91
86 93
86 94
86 95
86 96
86 98
86 101
86 115
86 10
86 24
87 103
87 119
87 17
87 101
87 114
87 88
87 90
87 91
87 93
87 94
87 95
87 96
87 98
87 102
87 116
87 11
88 104
88 120
88 18
88 102
88 115
88 9
88 90
88 91
88 93
88 94
88 95
88 96
88 98
88 103
88 117
88 13
90 106
90 4
90 19
90 103
90 116
90 10
90 23
90 91
90 93
90 94
90 95
90 96
90 98
90 104
90 119
90 16
90 97
91 107
91 5
91 20
91 104
91 117
91 11
91 24
91 93
91 94
91 95
91 96
91 98
91 106
91 120
91 17
91 109
92 93
92 108
92 6
92 21
92 105
92 118
92 12
92 26
92 103
92 117
92 13
93 108
93 6
93 21
93 106
93 119
93 13
93 94
93 95
93 96
93 98
93 107
93 4
93 18
93 121
94 110
94 7
94 22
94 107
94 120
94 16
94 95
94 96
94 98
94 108
94 5
94 19
94 15
95 112
95 8
95 108
95 4
95 17
95 96
95 98
95 110
95 6
95 20
96 113
96 110
96 5
96 18
96 98
96 112
96 7
96 21
98 112
98 6
98 19
98 113
98 8
98 22
99 115
99 11
99 109
99 101
99 102
99 103
99 104
99 106
99 107
99 108
99 110
99 112
99 113
99 114
99 9
99 23
101 116
101 13
101 121
101 114
101 102
101 103
101 104
101 106
101 107
101 108
101 110
101 112
101 113
101 115
101 10
101 24
102 117
102 16
102 15
102 115
102 9
102 103
102 104
102 106
102 107
102 108
102 110
102 112
102 113
102 116
102 11
103 119
103 17
103 116
103 10
103 23
103 104
103 106
103 107
103 108
103 110
103 112
103 113
103 117
103 13
104 120
104 18
104 117
104 11
104 24
104 106
104 107
104 108
104 110
104 112
104 113
104 119
104 16
105 110
105 7
105 22
105 118
105 12
105 26
105 119
105 16
106 4
106 19
106 119
106 13
106 107
106 108
106 110
106 112
106 113
106 120
106 17
106 109
107 5
107 20
107 120
107 16
107 108
107 110
107 112
107 113
107 4
107 18
107 121
108 6
108 21
108 4
108 17
108 110
108 112
108 113
108 5
108 19
108 15
110 7
110 22
110 5
110 18
110 112
110 113
110 6
110 20
112 8
112 6
112 19
112 113
112 7
112 21
113 7
113 20
113 8
113 22
114 10
114 115
114 116
114 117
114 119
114 120
114 4
114 5
114 6
114 7
114 8
114 9
114 23
115 11
115 9
115 116
115 117
115 119
115 120
115 4
115 5
115 6
115 7
115 8
115 10
115 24
116 13
116 121
116 10
116 23
116 117
116 119
116 120
116 4
116 5
116 6
116 7
116 8
116 11
117 16
117 15
117 11
117 24
117 119
117 120
117 4
117 5
117 6
117 7
117 8
117 13
118 8
118 12
118 26
118 120
118 17
119 17
119 13
119 120
119 4
119 5
119 6
119 7
119 8
119 16
120 18
120 16
120 4
120 5
120 6
120 7
120 8
120 17
4 19
4 17
4 5
4 6
4 7
4 8
4 18
5 20
5 18
5 6
5 7
5 8
5 19
5 15
6 21
6 19
6 7
6 8
6 20
7 22
7 20
7 8
7 21
8 21
8 22
9 24
9 10
9 11
9 13
9 16
9 17
9 18
9 19
9 20
9 21
9 22
9 23
10 23
10 11
10 13
10 16
10 17
10 18
10 19
10 20
10 21
10 22
10 24
11 24
11 13
11 16
11 17
11 18
11 19
11 20
11 21
11 22
12 26
12 18
13 16
13 17
13 18
13 19
13 20
13 21
13 22
16 17
16 18
16 19
16 20
16 21
16 22
17 18
17 19
17 20
17 21
17 22
18 19
18 20
18 21
18 22
19 20
19 21
19 22
20 21
20 22
21 22
23 24
45 31
45 97
45 48
45 29
45 49
45 56
45 67
45 78
45 89
45 100
45 111
45 3
45 14
45 30
45 73
45 44
56 32
56 109
56 50
56 30
56 61
56 42
56 67
56 78
56 89
56 100
56 111
56 3
56 14
56 31
56 85
56 46
67 33
67 121
67 51
67 31
67 73
67 43
67 78
67 89
67 100
67 111
67 3
67 14
67 32
67 97
67 47
78 35
78 15
78 52
78 32
78 85
78 44
78 89
78 100
78 111
78 3
78 14
78 33
78 109
78 48
89 36
89 54
89 33
89 97
89 46
89 100
89 111
89 3
89 14
89 35
89 121
89 50
100 37
100 27
100 55
100 35
100 109
100 47
100 111
100 3
100 14
100 36
100 15
100 51
111 38
111 41
111 36
111 121
111 48
111 3
111 14
111 37
111 52
3 40
3 37
3 15
3 50
3 14
3 38
3 27
3 54
14 38
14 51
14 40
14 41
14 55
25 61
25 44
25 29
25 30
25 31
25 32
25 33
25 35
25 36
25 37
25 38
25 40
25 49
25 42
28 68
28 83
28 64
28 77
28 91
28 104
28 117
28 11
28 24
28 39
28 66
28 81
28 95
28 110
28 6
28 20
28 37
28 52
29 73
29 46
29 49
29 30
29 31
29 32
29 33
29 35
29 36
29 37
29 38
29 40
29 61
29 43
30 85
30 47
30 61
30 42
30 31
30 32
30 33
30 35
30 36
30 37
30 38
30 40
30 73
30 44
31 97
31 48
31 73
31 43
31 32
31 33
31 35
31 36
31 37
31 38
31 40
31 85
31 46
32 109
32 50
32 85
32 44
32 33
32 35
32 36
32 37
32 38
32 40
32 97
32 47
33 121
33 51
33 97
33 46
33 35
33 36
33 37
33 38
33 40
33 109
33 48
35 15
35 52
35 109
35 47
35 36
35 37
35 38
35 40
35 121
35 50
36 54
36 121
36 48
36 37
36 38
36 40
36 15
36 51
37 55
37 15
37 50
37 38
37 40
37 52
38 41
38 51
38 40
38 54
40 52
40 41
40 55
